instances/knapsack/discrete/knapsack_100_13.kp
11841
100
500

21 2.1 90
82 8.2 78
12 1.2 36
53 5.3 72
62 6.2 73
83 8.3 69
87 8.7 97
5 0.5 31
27 2.7 38
24 2.4 14
5 0.5 51
29 2.9 71
94 9.4 75
86 8.6 14
86 8.6 55
62 6.2 32
47 4.7 70
82 8.2 22
31 3.1 42
84 8.4 13
87 8.7 17
61 6.1 71
74 7.4 24
52 5.2 8
22 2.2 33
54 5.4 54
92 9.2 16
73 7.3 95
99 9.9 82
97 9.7 52
11 1.1 21
53 5.3 100
93 9.3 84
67 6.7 43
22 2.2 47
35 3.5 25
58 5.8 53
94 9.4 99
34 3.4 62
8 0.8 19
89 8.9 4
71 7.1 85
48 4.8 21
87 8.7 31
41 4.1 94
8 0.8 63
31 3.1 96
95 9.5 24
41 4.1 56
26 2.6 77
100 10.0 3
22 2.2 10
91 9.1 63
14 1.4 53
42 4.2 96
41 4.1 6
95 9.5 22
16 1.6 60
50 5.0 8
68 6.8 39
90 9.0 40
36 3.6 98
81 8.1 13
84 8.4 73
89 8.9 62
58 5.8 33
86 8.6 13
72 7.2 45
42 4.2 96
31 3.1 33
67 6.7 21
51 5.1 3
68 6.8 41
45 4.5 21
89 8.9 62
38 3.8 38
20 2.0 66
73 7.3 1
26 2.6 60
4 0.4 3
43 4.3 39
87 8.7 42
68 6.8 21
35 3.5 18
23 2.3 13
7 0.7 40
33 3.3 74
10 1.0 67
4 0.4 36
9 0.9 94
10 1.0 50
94 9.4 29
98 9.8 69
25 2.5 80
58 5.8 68
75 7.5 2
19 1.9 9
50 5.0 80
18 1.8 48
18 1.8 92

25722
428

[0.47 1.42 3.68 3.01 1.77 1.3 2.75 3.13 3.83 1.67 0.1 3.83 3.05 0.15 2.82 1.87 1.32 2.29 4.19 2.33 2.46 0.58 2.81 3.38 4.16 3.58 1.25 3.27 0.9 0.66 3.04 3.81 1.98 3.95 3.75 0.31 2.2 0.77 4.01 1.58 3.49 1.49 0.77 4.23 4.16 1.34 2.11 3.46 2.22 0.93 1.44 3.28 0.46 2.51 3.12 3.0 0.94 3.32 3.44 2.33 3.74 1.07 0.01 0.2 2.89 3.74 3.49 1.53 2.67 3.97 0.43 0.36 3.93 1.17 3.29 1.07 3.84 3.47 2.73 1.66 1.03 3.67 1.38 2.74 3.02 0.52 0.52 0.1 3.32 0.84 3.49 0.49 0.86 2.79 4.14 4.0 0.23 2.77 2.81 3.61]

[20 44 2 47 32 82 25 16 25 94 8 7 36 64 25 21 73 12 13 2 73 96 48 23 17 36 46 52 14 55 2 88 12 69 60 53 52 77 16 39 23 50 2 34 11 27 54 22 67 8 91 24 97 64 21 48 65 19 44 70 29 99 72 59 76 88 49 71 32 10 50 70 66 75 40 21 87 43 9 39 46 30 99 18 62 6 16 92 90 11 89 9 69 80 80 81 17 17 76 4]
