instances/knapsack/discrete/knapsack_100_13.lp
\ Model knapsack_100_13
\ LP format - for model browsing. Use MPS format to capture full model detail.
\ Signature: 0x98b4e0718ea0846a
Minimize
  - 7 x[0] - 24 x[1] - 17 x[2] - 21 x[3] - 59 x[4] - 38 x[5] - 47 x[6]
   - 97 x[7] - 48 x[8] - 72 x[9] - 80 x[10] - 40 x[11] - 68 x[12]
   - 11 x[13] - 88 x[14] - 29 x[15] - 43 x[16] - 43 x[17] - 4 x[18]
   - 71 x[19] - 95 x[20] - 92 x[21] - 81 x[22] - 85 x[23] - 94 x[24]
   - 96 x[25] - 81 x[26] - 33 x[27] - 63 x[28] - 66 x[29] - 6 x[30]
   - 97 x[31] - 37 x[32] - 8 x[33] - 57 x[34] - 98 x[35] - 26 x[36]
   - 28 x[37] - 4 x[38] - 21 x[39] - 97 x[40] - 55 x[41] - 15 x[42]
   - 16 x[43] - 64 x[44] - 56 x[45] - 82 x[46] - 66 x[47] - 50 x[48]
   - 99 x[49] - 4 x[50] - 16 x[51] - 60 x[52] - 58 x[53] - 81 x[54]
   - 15 x[55] - 32 x[56] - 97 x[57] - 49 x[58] - 84 x[59] - 5 x[60]
   - 75 x[61] - 71 x[62] - 99 x[63] - 36 x[64] - 78 x[65] - 82 x[66]
   - 79 x[67] - 62 x[68] - 31 x[69] - 58 x[70] - 92 x[71] - 22 x[72]
   - 83 x[73] - 80 x[74] - 75 x[75] - 47 x[76] - 74 x[77] - 29 x[78]
   - 69 x[79] - 16 x[80] - 31 x[81] - 63 x[82] - 71 x[83] - 66 x[84]
   - 6 x[85] - 51 x[86] - 60 x[87] - 93 x[88] - 72 x[89] - 55 x[90]
   - 59 x[91] - 43 x[92] - 26 x[93] - 13 x[94] - 24 x[95] - 58 x[96]
   - 33 x[97] - 94 x[98] - 22 x[99]
Subject To
 primal_upper: 9 x[0] + 77 x[1] + 35 x[2] + 16 x[3] + 93 x[4] + 47 x[5]
   + 74 x[6] + 85 x[7] + 98 x[8] + 87 x[9] + 77 x[10] + 92 x[11] + 53 x[12]
   + 29 x[13] + 14 x[14] + 74 x[15] + 10 x[16] + 97 x[17] + 26 x[18]
   + 67 x[19] + 34 x[20] + 53 x[21] + 81 x[22] + 32 x[23] + 26 x[24]
   + 25 x[25] + 15 x[26] + 45 x[27] + 31 x[28] + 8 x[29] + 71 x[30]
   + 45 x[31] + 85 x[32] + 78 x[33] + 33 x[34] + 82 x[35] + 21 x[36]
   + 90 x[37] + 89 x[38] + 88 x[39] + 76 x[40] + 31 x[41] + 35 x[42]
   + 83 x[43] + 32 x[44] + 16 x[45] + 95 x[46] + 39 x[47] + 72 x[48]
   + 25 x[49] + 60 x[50] + 89 x[51] + 70 x[52] + 81 x[53] + 10 x[54]
   + 21 x[55] + 98 x[56] + 84 x[57] + 21 x[58] + 11 x[59] + 30 x[60]
   + 12 x[61] + 53 x[62] + 40 x[63] + 93 x[64] + 69 x[65] + 86 x[66]
   + 72 x[67] + 65 x[68] + 15 x[69] + 11 x[70] + 59 x[71] + 67 x[72]
   + 100 x[73] + 29 x[74] + 74 x[75] + 28 x[76] + 20 x[77] + 54 x[78]
   + 72 x[79] + 83 x[80] + 95 x[81] + 52 x[82] + 91 x[83] + 71 x[84]
   + 83 x[85] + 65 x[86] + 49 x[87] + 79 x[88] + 28 x[89] + 10 x[90]
   + 82 x[91] + 46 x[92] + 21 x[93] + 85 x[94] + 86 x[95] + 22 x[96]
   + 42 x[97] + 65 x[98] + 9 x[99] + 0.9 r[0] + 7.7 r[1] + 3.5 r[2]
   + 1.6 r[3] + 9.3 r[4] + 4.7 r[5] + 7.4 r[6] + 8.5 r[7] + 9.8 r[8]
   + 8.7 r[9] + 7.7 r[10] + 9.2 r[11] + 5.3 r[12] + 2.9 r[13] + 1.4 r[14]
   + 7.4 r[15] + r[16] + 9.7 r[17] + 2.6 r[18] + 6.7 r[19] + 3.4 r[20]
   + 5.3 r[21] + 8.1 r[22] + 3.2 r[23] + 2.6 r[24] + 2.5 r[25] + 1.5 r[26]
   + 4.5 r[27] + 3.1 r[28] + 0.8 r[29] + 7.1 r[30] + 4.5 r[31] + 8.5 r[32]
   + 7.8 r[33] + 3.3 r[34] + 8.2 r[35] + 2.1 r[36] + 9 r[37] + 8.9 r[38]
   + 8.8 r[39] + 7.6 r[40] + 3.1 r[41] + 3.5 r[42] + 8.3 r[43] + 3.2 r[44]
   + 1.6 r[45] + 9.5 r[46] + 3.9 r[47] + 7.2 r[48] + 2.5 r[49] + 6 r[50]
   + 8.9 r[51] + 7 r[52] + 8.1 r[53] + r[54] + 2.1 r[55] + 9.8 r[56]
   + 8.4 r[57] + 2.1 r[58] + 1.1 r[59] + 3 r[60] + 1.2 r[61] + 5.3 r[62]
   + 4 r[63] + 9.3 r[64] + 6.9 r[65] + 8.6 r[66] + 7.2 r[67] + 6.5 r[68]
   + 1.5 r[69] + 1.1 r[70] + 5.9 r[71] + 6.7 r[72] + 10 r[73] + 2.9 r[74]
   + 7.4 r[75] + 2.8 r[76] + 2 r[77] + 5.4 r[78] + 7.2 r[79] + 8.3 r[80]
   + 9.5 r[81] + 5.2 r[82] + 9.1 r[83] + 7.1 r[84] + 8.3 r[85] + 6.5 r[86]
   + 4.9 r[87] + 7.9 r[88] + 2.8 r[89] + r[90] + 8.2 r[91] + 4.6 r[92]
   + 2.1 r[93] + 8.5 r[94] + 8.6 r[95] + 2.2 r[96] + 4.2 r[97] + 6.5 r[98]
   + 0.9 r[99] <= 519
 primal_lower: 3.001145071119868 x[0] + 1.251472427601511 x[1]
   + 1.148733043584861 x[2] + 1.105845841614814 x[3]
   + 0.9413131481177881 x[4] + 1.223892098183396 x[5]
   + 0.7622737583600468 x[6] + 1.674271231759516 x[7]
   + 0.7876031613456999 x[8] + 4.178172321235118 x[9]
   + 1.861899399186997 x[10] + 2.482535266060595 x[11]
   + 0.1931776070213556 x[12] + 2.715109182482609 x[13]
   + 1.659100623609756 x[14] + 2.569606322185479 x[15]
   + 1.47991224096288 x[16] + 1.566124344118373 x[17]
   + 3.026690618243537 x[18] + 3.706640947786026 x[19]
   + 0.8671502332411127 x[20] + 4.66938303997917 x[21]
   + 1.629512308163113 x[22] + 2.615094962345984 x[23]
   + 3.702652591882497 x[24] + 4.100295984983843 x[25]
   + 1.951961026711135 x[26] + 0.1546231183765864 x[27]
   + 0.1612771158934837 x[28] + 2.105340041282727 x[29]
   + 1.162028642963467 x[30] + 3.509023341359315 x[31]
   + 2.667771154120766 x[32] + 1.684000413571323 x[33]
   + 0.4500585962493105 x[34] + 1.1112737690167 x[35]
   + 4.500733356666045 x[36] + 3.23217654178373 x[37]
   + 1.953123545793798 x[38] + 4.38794928947171 x[39]
   + 3.722151763089446 x[40] + 1.166371255563748 x[41]
   + 3.896652024790899 x[42] + 4.904807631214473 x[43]
   + 1.693585375804628 x[44] + 3.184607332653909 x[45]
   + 0.820121433994225 x[46] + 1.495679485312278 x[47]
   + 3.570106605668667 x[48] + 1.464088272380806 x[49]
   + 0.8481683332103992 x[50] + 3.096331172299128 x[51]
   + 3.553805960899234 x[52] + 0.6312293434293699 x[53]
   + 3.503713365673497 x[54] + 4.188456610153437 x[55]
   + 2.752915347582765 x[56] + 2.150965613280805 x[57]
   + 0.2211574946055057 x[58] + 0.4588772317158318 x[59]
   + 0.7187062928798067 x[60] + 1.602435109663154 x[61]
   + 2.599220786991935 x[62] + 4.446527289949769 x[63]
   + 4.114323225802494 x[64] + 3.973724114688253 x[65]
   + 4.467507745276381 x[66] + 2.658947235685044 x[67]
   + 0.9574913746728061 x[68] + 1.215429325257579 x[69]
   + 2.939594317006711 x[70] + 1.831288631152969 x[71]
   + 0.3384228365449403 x[72] + 1.529748260790213 x[73]
   + 0.107362173295442 x[74] + 3.054884230116473 x[75]
   + 2.501864872748226 x[76] + 1.005035509596794 x[77]
   + 0.4774286518718109 x[78] + 0.1102331476642989 x[79]
   + 3.11857907716961 x[80] + 4.286355095127687 x[81]
   + 1.363951778104582 x[82] + 0.6681017848092857 x[83]
   + 0.9471579350032715 x[84] + 1.252331486175241 x[85]
   + 0.7996899510411617 x[86] + 3.122121027531741 x[87]
   + 1.829290937349892 x[88] + 2.15979065278064 x[89]
   + 2.534964664183005 x[90] + 2.546783702501802 x[91]
   + 1.647902341528341 x[92] + 0.4243539337994013 x[93]
   + 1.32909026510482 x[94] + 3.749303062211115 x[95]
   + 4.687999835350205 x[96] + 1.800004230050838 x[97]
   + 2.263156881985255 x[98] + 0.5110823108902779 x[99] + 13 u[0] + 6 u[1]
   + 16 u[2] + 37 u[3] + 34 u[4] + 91 u[5] + 91 u[6] + 33 u[7] + 71 u[8]
   + 32 u[9] + 17 u[10] + 29 u[11] + 94 u[12] + 38 u[13] + 50 u[14]
   + 62 u[15] + 3 u[16] + 94 u[17] + 95 u[18] + 96 u[19] + 39 u[20]
   + 81 u[21] + 86 u[22] + 20 u[23] + 10 u[24] + 38 u[25] + 16 u[26]
   + 73 u[27] + 15 u[28] + 29 u[29] + 27 u[30] + 13 u[31] + 73 u[32]
   + 99 u[33] + 98 u[34] + 75 u[35] + 62 u[36] + 86 u[37] + 94 u[38]
   + 64 u[39] + 45 u[40] + 43 u[41] + 28 u[42] + 79 u[43] + 37 u[44]
   + 24 u[45] + 99 u[46] + 35 u[47] + 69 u[48] + 46 u[49] + 32 u[50]
   + 38 u[51] + 79 u[52] + 18 u[53] + 26 u[54] + 45 u[55] + 63 u[56]
   + 76 u[57] + 34 u[58] + 36 u[59] + 50 u[60] + 92 u[61] + u[62]
   + 60 u[63] + 33 u[64] + 66 u[65] + 90 u[66] + 40 u[67] + 82 u[68]
   + 67 u[69] + 7 u[70] + 67 u[71] + 60 u[72] + 13 u[73] + 65 u[74]
   + 94 u[75] + 72 u[76] + 9 u[77] + 86 u[78] + 32 u[79] + 39 u[80]
   + 87 u[81] + 92 u[82] + 95 u[83] + 79 u[84] + 43 u[85] + 49 u[86]
   + 26 u[87] + 4 u[88] + 29 u[89] + 2 u[90] + 70 u[91] + 2 u[92]
   + 45 u[93] + 82 u[94] + 19 u[95] + 87 u[96] + 6 u[97] + 90 u[98]
   + 86 u[99] <= 48673
 mccormick1[0]: - u[0] + r[0] <= 0
 mccormick1[1]: - u[1] + r[1] <= 0
 mccormick1[2]: - u[2] + r[2] <= 0
 mccormick1[3]: - u[3] + r[3] <= 0
 mccormick1[4]: - u[4] + r[4] <= 0
 mccormick1[5]: - u[5] + r[5] <= 0
 mccormick1[6]: - u[6] + r[6] <= 0
 mccormick1[7]: - u[7] + r[7] <= 0
 mccormick1[8]: - u[8] + r[8] <= 0
 mccormick1[9]: - u[9] + r[9] <= 0
 mccormick1[10]: - u[10] + r[10] <= 0
 mccormick1[11]: - u[11] + r[11] <= 0
 mccormick1[12]: - u[12] + r[12] <= 0
 mccormick1[13]: - u[13] + r[13] <= 0
 mccormick1[14]: - u[14] + r[14] <= 0
 mccormick1[15]: - u[15] + r[15] <= 0
 mccormick1[16]: - u[16] + r[16] <= 0
 mccormick1[17]: - u[17] + r[17] <= 0
 mccormick1[18]: - u[18] + r[18] <= 0
 mccormick1[19]: - u[19] + r[19] <= 0
 mccormick1[20]: - u[20] + r[20] <= 0
 mccormick1[21]: - u[21] + r[21] <= 0
 mccormick1[22]: - u[22] + r[22] <= 0
 mccormick1[23]: - u[23] + r[23] <= 0
 mccormick1[24]: - u[24] + r[24] <= 0
 mccormick1[25]: - u[25] + r[25] <= 0
 mccormick1[26]: - u[26] + r[26] <= 0
 mccormick1[27]: - u[27] + r[27] <= 0
 mccormick1[28]: - u[28] + r[28] <= 0
 mccormick1[29]: - u[29] + r[29] <= 0
 mccormick1[30]: - u[30] + r[30] <= 0
 mccormick1[31]: - u[31] + r[31] <= 0
 mccormick1[32]: - u[32] + r[32] <= 0
 mccormick1[33]: - u[33] + r[33] <= 0
 mccormick1[34]: - u[34] + r[34] <= 0
 mccormick1[35]: - u[35] + r[35] <= 0
 mccormick1[36]: - u[36] + r[36] <= 0
 mccormick1[37]: - u[37] + r[37] <= 0
 mccormick1[38]: - u[38] + r[38] <= 0
 mccormick1[39]: - u[39] + r[39] <= 0
 mccormick1[40]: - u[40] + r[40] <= 0
 mccormick1[41]: - u[41] + r[41] <= 0
 mccormick1[42]: - u[42] + r[42] <= 0
 mccormick1[43]: - u[43] + r[43] <= 0
 mccormick1[44]: - u[44] + r[44] <= 0
 mccormick1[45]: - u[45] + r[45] <= 0
 mccormick1[46]: - u[46] + r[46] <= 0
 mccormick1[47]: - u[47] + r[47] <= 0
 mccormick1[48]: - u[48] + r[48] <= 0
 mccormick1[49]: - u[49] + r[49] <= 0
 mccormick1[50]: - u[50] + r[50] <= 0
 mccormick1[51]: - u[51] + r[51] <= 0
 mccormick1[52]: - u[52] + r[52] <= 0
 mccormick1[53]: - u[53] + r[53] <= 0
 mccormick1[54]: - u[54] + r[54] <= 0
 mccormick1[55]: - u[55] + r[55] <= 0
 mccormick1[56]: - u[56] + r[56] <= 0
 mccormick1[57]: - u[57] + r[57] <= 0
 mccormick1[58]: - u[58] + r[58] <= 0
 mccormick1[59]: - u[59] + r[59] <= 0
 mccormick1[60]: - u[60] + r[60] <= 0
 mccormick1[61]: - u[61] + r[61] <= 0
 mccormick1[62]: - u[62] + r[62] <= 0
 mccormick1[63]: - u[63] + r[63] <= 0
 mccormick1[64]: - u[64] + r[64] <= 0
 mccormick1[65]: - u[65] + r[65] <= 0
 mccormick1[66]: - u[66] + r[66] <= 0
 mccormick1[67]: - u[67] + r[67] <= 0
 mccormick1[68]: - u[68] + r[68] <= 0
 mccormick1[69]: - u[69] + r[69] <= 0
 mccormick1[70]: - u[70] + r[70] <= 0
 mccormick1[71]: - u[71] + r[71] <= 0
 mccormick1[72]: - u[72] + r[72] <= 0
 mccormick1[73]: - u[73] + r[73] <= 0
 mccormick1[74]: - u[74] + r[74] <= 0
 mccormick1[75]: - u[75] + r[75] <= 0
 mccormick1[76]: - u[76] + r[76] <= 0
 mccormick1[77]: - u[77] + r[77] <= 0
 mccormick1[78]: - u[78] + r[78] <= 0
 mccormick1[79]: - u[79] + r[79] <= 0
 mccormick1[80]: - u[80] + r[80] <= 0
 mccormick1[81]: - u[81] + r[81] <= 0
 mccormick1[82]: - u[82] + r[82] <= 0
 mccormick1[83]: - u[83] + r[83] <= 0
 mccormick1[84]: - u[84] + r[84] <= 0
 mccormick1[85]: - u[85] + r[85] <= 0
 mccormick1[86]: - u[86] + r[86] <= 0
 mccormick1[87]: - u[87] + r[87] <= 0
 mccormick1[88]: - u[88] + r[88] <= 0
 mccormick1[89]: - u[89] + r[89] <= 0
 mccormick1[90]: - u[90] + r[90] <= 0
 mccormick1[91]: - u[91] + r[91] <= 0
 mccormick1[92]: - u[92] + r[92] <= 0
 mccormick1[93]: - u[93] + r[93] <= 0
 mccormick1[94]: - u[94] + r[94] <= 0
 mccormick1[95]: - u[95] + r[95] <= 0
 mccormick1[96]: - u[96] + r[96] <= 0
 mccormick1[97]: - u[97] + r[97] <= 0
 mccormick1[98]: - u[98] + r[98] <= 0
 mccormick1[99]: - u[99] + r[99] <= 0
 mccormick2[0]: - x[0] + r[0] <= 0
 mccormick2[1]: - x[1] + r[1] <= 0
 mccormick2[2]: - x[2] + r[2] <= 0
 mccormick2[3]: - x[3] + r[3] <= 0
 mccormick2[4]: - x[4] + r[4] <= 0
 mccormick2[5]: - x[5] + r[5] <= 0
 mccormick2[6]: - x[6] + r[6] <= 0
 mccormick2[7]: - x[7] + r[7] <= 0
 mccormick2[8]: - x[8] + r[8] <= 0
 mccormick2[9]: - x[9] + r[9] <= 0
 mccormick2[10]: - x[10] + r[10] <= 0
 mccormick2[11]: - x[11] + r[11] <= 0
 mccormick2[12]: - x[12] + r[12] <= 0
 mccormick2[13]: - x[13] + r[13] <= 0
 mccormick2[14]: - x[14] + r[14] <= 0
 mccormick2[15]: - x[15] + r[15] <= 0
 mccormick2[16]: - x[16] + r[16] <= 0
 mccormick2[17]: - x[17] + r[17] <= 0
 mccormick2[18]: - x[18] + r[18] <= 0
 mccormick2[19]: - x[19] + r[19] <= 0
 mccormick2[20]: - x[20] + r[20] <= 0
 mccormick2[21]: - x[21] + r[21] <= 0
 mccormick2[22]: - x[22] + r[22] <= 0
 mccormick2[23]: - x[23] + r[23] <= 0
 mccormick2[24]: - x[24] + r[24] <= 0
 mccormick2[25]: - x[25] + r[25] <= 0
 mccormick2[26]: - x[26] + r[26] <= 0
 mccormick2[27]: - x[27] + r[27] <= 0
 mccormick2[28]: - x[28] + r[28] <= 0
 mccormick2[29]: - x[29] + r[29] <= 0
 mccormick2[30]: - x[30] + r[30] <= 0
 mccormick2[31]: - x[31] + r[31] <= 0
 mccormick2[32]: - x[32] + r[32] <= 0
 mccormick2[33]: - x[33] + r[33] <= 0
 mccormick2[34]: - x[34] + r[34] <= 0
 mccormick2[35]: - x[35] + r[35] <= 0
 mccormick2[36]: - x[36] + r[36] <= 0
 mccormick2[37]: - x[37] + r[37] <= 0
 mccormick2[38]: - x[38] + r[38] <= 0
 mccormick2[39]: - x[39] + r[39] <= 0
 mccormick2[40]: - x[40] + r[40] <= 0
 mccormick2[41]: - x[41] + r[41] <= 0
 mccormick2[42]: - x[42] + r[42] <= 0
 mccormick2[43]: - x[43] + r[43] <= 0
 mccormick2[44]: - x[44] + r[44] <= 0
 mccormick2[45]: - x[45] + r[45] <= 0
 mccormick2[46]: - x[46] + r[46] <= 0
 mccormick2[47]: - x[47] + r[47] <= 0
 mccormick2[48]: - x[48] + r[48] <= 0
 mccormick2[49]: - x[49] + r[49] <= 0
 mccormick2[50]: - x[50] + r[50] <= 0
 mccormick2[51]: - x[51] + r[51] <= 0
 mccormick2[52]: - x[52] + r[52] <= 0
 mccormick2[53]: - x[53] + r[53] <= 0
 mccormick2[54]: - x[54] + r[54] <= 0
 mccormick2[55]: - x[55] + r[55] <= 0
 mccormick2[56]: - x[56] + r[56] <= 0
 mccormick2[57]: - x[57] + r[57] <= 0
 mccormick2[58]: - x[58] + r[58] <= 0
 mccormick2[59]: - x[59] + r[59] <= 0
 mccormick2[60]: - x[60] + r[60] <= 0
 mccormick2[61]: - x[61] + r[61] <= 0
 mccormick2[62]: - x[62] + r[62] <= 0
 mccormick2[63]: - x[63] + r[63] <= 0
 mccormick2[64]: - x[64] + r[64] <= 0
 mccormick2[65]: - x[65] + r[65] <= 0
 mccormick2[66]: - x[66] + r[66] <= 0
 mccormick2[67]: - x[67] + r[67] <= 0
 mccormick2[68]: - x[68] + r[68] <= 0
 mccormick2[69]: - x[69] + r[69] <= 0
 mccormick2[70]: - x[70] + r[70] <= 0
 mccormick2[71]: - x[71] + r[71] <= 0
 mccormick2[72]: - x[72] + r[72] <= 0
 mccormick2[73]: - x[73] + r[73] <= 0
 mccormick2[74]: - x[74] + r[74] <= 0
 mccormick2[75]: - x[75] + r[75] <= 0
 mccormick2[76]: - x[76] + r[76] <= 0
 mccormick2[77]: - x[77] + r[77] <= 0
 mccormick2[78]: - x[78] + r[78] <= 0
 mccormick2[79]: - x[79] + r[79] <= 0
 mccormick2[80]: - x[80] + r[80] <= 0
 mccormick2[81]: - x[81] + r[81] <= 0
 mccormick2[82]: - x[82] + r[82] <= 0
 mccormick2[83]: - x[83] + r[83] <= 0
 mccormick2[84]: - x[84] + r[84] <= 0
 mccormick2[85]: - x[85] + r[85] <= 0
 mccormick2[86]: - x[86] + r[86] <= 0
 mccormick2[87]: - x[87] + r[87] <= 0
 mccormick2[88]: - x[88] + r[88] <= 0
 mccormick2[89]: - x[89] + r[89] <= 0
 mccormick2[90]: - x[90] + r[90] <= 0
 mccormick2[91]: - x[91] + r[91] <= 0
 mccormick2[92]: - x[92] + r[92] <= 0
 mccormick2[93]: - x[93] + r[93] <= 0
 mccormick2[94]: - x[94] + r[94] <= 0
 mccormick2[95]: - x[95] + r[95] <= 0
 mccormick2[96]: - x[96] + r[96] <= 0
 mccormick2[97]: - x[97] + r[97] <= 0
 mccormick2[98]: - x[98] + r[98] <= 0
 mccormick2[99]: - x[99] + r[99] <= 0
 mccormick3[0]: x[0] + u[0] - r[0] <= 1
 mccormick3[1]: x[1] + u[1] - r[1] <= 1
 mccormick3[2]: x[2] + u[2] - r[2] <= 1
 mccormick3[3]: x[3] + u[3] - r[3] <= 1
 mccormick3[4]: x[4] + u[4] - r[4] <= 1
 mccormick3[5]: x[5] + u[5] - r[5] <= 1
 mccormick3[6]: x[6] + u[6] - r[6] <= 1
 mccormick3[7]: x[7] + u[7] - r[7] <= 1
 mccormick3[8]: x[8] + u[8] - r[8] <= 1
 mccormick3[9]: x[9] + u[9] - r[9] <= 1
 mccormick3[10]: x[10] + u[10] - r[10] <= 1
 mccormick3[11]: x[11] + u[11] - r[11] <= 1
 mccormick3[12]: x[12] + u[12] - r[12] <= 1
 mccormick3[13]: x[13] + u[13] - r[13] <= 1
 mccormick3[14]: x[14] + u[14] - r[14] <= 1
 mccormick3[15]: x[15] + u[15] - r[15] <= 1
 mccormick3[16]: x[16] + u[16] - r[16] <= 1
 mccormick3[17]: x[17] + u[17] - r[17] <= 1
 mccormick3[18]: x[18] + u[18] - r[18] <= 1
 mccormick3[19]: x[19] + u[19] - r[19] <= 1
 mccormick3[20]: x[20] + u[20] - r[20] <= 1
 mccormick3[21]: x[21] + u[21] - r[21] <= 1
 mccormick3[22]: x[22] + u[22] - r[22] <= 1
 mccormick3[23]: x[23] + u[23] - r[23] <= 1
 mccormick3[24]: x[24] + u[24] - r[24] <= 1
 mccormick3[25]: x[25] + u[25] - r[25] <= 1
 mccormick3[26]: x[26] + u[26] - r[26] <= 1
 mccormick3[27]: x[27] + u[27] - r[27] <= 1
 mccormick3[28]: x[28] + u[28] - r[28] <= 1
 mccormick3[29]: x[29] + u[29] - r[29] <= 1
 mccormick3[30]: x[30] + u[30] - r[30] <= 1
 mccormick3[31]: x[31] + u[31] - r[31] <= 1
 mccormick3[32]: x[32] + u[32] - r[32] <= 1
 mccormick3[33]: x[33] + u[33] - r[33] <= 1
 mccormick3[34]: x[34] + u[34] - r[34] <= 1
 mccormick3[35]: x[35] + u[35] - r[35] <= 1
 mccormick3[36]: x[36] + u[36] - r[36] <= 1
 mccormick3[37]: x[37] + u[37] - r[37] <= 1
 mccormick3[38]: x[38] + u[38] - r[38] <= 1
 mccormick3[39]: x[39] + u[39] - r[39] <= 1
 mccormick3[40]: x[40] + u[40] - r[40] <= 1
 mccormick3[41]: x[41] + u[41] - r[41] <= 1
 mccormick3[42]: x[42] + u[42] - r[42] <= 1
 mccormick3[43]: x[43] + u[43] - r[43] <= 1
 mccormick3[44]: x[44] + u[44] - r[44] <= 1
 mccormick3[45]: x[45] + u[45] - r[45] <= 1
 mccormick3[46]: x[46] + u[46] - r[46] <= 1
 mccormick3[47]: x[47] + u[47] - r[47] <= 1
 mccormick3[48]: x[48] + u[48] - r[48] <= 1
 mccormick3[49]: x[49] + u[49] - r[49] <= 1
 mccormick3[50]: x[50] + u[50] - r[50] <= 1
 mccormick3[51]: x[51] + u[51] - r[51] <= 1
 mccormick3[52]: x[52] + u[52] - r[52] <= 1
 mccormick3[53]: x[53] + u[53] - r[53] <= 1
 mccormick3[54]: x[54] + u[54] - r[54] <= 1
 mccormick3[55]: x[55] + u[55] - r[55] <= 1
 mccormick3[56]: x[56] + u[56] - r[56] <= 1
 mccormick3[57]: x[57] + u[57] - r[57] <= 1
 mccormick3[58]: x[58] + u[58] - r[58] <= 1
 mccormick3[59]: x[59] + u[59] - r[59] <= 1
 mccormick3[60]: x[60] + u[60] - r[60] <= 1
 mccormick3[61]: x[61] + u[61] - r[61] <= 1
 mccormick3[62]: x[62] + u[62] - r[62] <= 1
 mccormick3[63]: x[63] + u[63] - r[63] <= 1
 mccormick3[64]: x[64] + u[64] - r[64] <= 1
 mccormick3[65]: x[65] + u[65] - r[65] <= 1
 mccormick3[66]: x[66] + u[66] - r[66] <= 1
 mccormick3[67]: x[67] + u[67] - r[67] <= 1
 mccormick3[68]: x[68] + u[68] - r[68] <= 1
 mccormick3[69]: x[69] + u[69] - r[69] <= 1
 mccormick3[70]: x[70] + u[70] - r[70] <= 1
 mccormick3[71]: x[71] + u[71] - r[71] <= 1
 mccormick3[72]: x[72] + u[72] - r[72] <= 1
 mccormick3[73]: x[73] + u[73] - r[73] <= 1
 mccormick3[74]: x[74] + u[74] - r[74] <= 1
 mccormick3[75]: x[75] + u[75] - r[75] <= 1
 mccormick3[76]: x[76] + u[76] - r[76] <= 1
 mccormick3[77]: x[77] + u[77] - r[77] <= 1
 mccormick3[78]: x[78] + u[78] - r[78] <= 1
 mccormick3[79]: x[79] + u[79] - r[79] <= 1
 mccormick3[80]: x[80] + u[80] - r[80] <= 1
 mccormick3[81]: x[81] + u[81] - r[81] <= 1
 mccormick3[82]: x[82] + u[82] - r[82] <= 1
 mccormick3[83]: x[83] + u[83] - r[83] <= 1
 mccormick3[84]: x[84] + u[84] - r[84] <= 1
 mccormick3[85]: x[85] + u[85] - r[85] <= 1
 mccormick3[86]: x[86] + u[86] - r[86] <= 1
 mccormick3[87]: x[87] + u[87] - r[87] <= 1
 mccormick3[88]: x[88] + u[88] - r[88] <= 1
 mccormick3[89]: x[89] + u[89] - r[89] <= 1
 mccormick3[90]: x[90] + u[90] - r[90] <= 1
 mccormick3[91]: x[91] + u[91] - r[91] <= 1
 mccormick3[92]: x[92] + u[92] - r[92] <= 1
 mccormick3[93]: x[93] + u[93] - r[93] <= 1
 mccormick3[94]: x[94] + u[94] - r[94] <= 1
 mccormick3[95]: x[95] + u[95] - r[95] <= 1
 mccormick3[96]: x[96] + u[96] - r[96] <= 1
 mccormick3[97]: x[97] + u[97] - r[97] <= 1
 mccormick3[98]: x[98] + u[98] - r[98] <= 1
 mccormick3[99]: x[99] + u[99] - r[99] <= 1
Bounds
Binaries
 x[0] x[1] x[2] x[3] x[4] x[5] x[6] x[7] x[8] x[9] x[10] x[11] x[12] x[13]
 x[14] x[15] x[16] x[17] x[18] x[19] x[20] x[21] x[22] x[23] x[24] x[25]
 x[26] x[27] x[28] x[29] x[30] x[31] x[32] x[33] x[34] x[35] x[36] x[37]
 x[38] x[39] x[40] x[41] x[42] x[43] x[44] x[45] x[46] x[47] x[48] x[49]
 x[50] x[51] x[52] x[53] x[54] x[55] x[56] x[57] x[58] x[59] x[60] x[61]
 x[62] x[63] x[64] x[65] x[66] x[67] x[68] x[69] x[70] x[71] x[72] x[73]
 x[74] x[75] x[76] x[77] x[78] x[79] x[80] x[81] x[82] x[83] x[84] x[85]
 x[86] x[87] x[88] x[89] x[90] x[91] x[92] x[93] x[94] x[95] x[96] x[97]
 x[98] x[99] u[0] u[1] u[2] u[3] u[4] u[5] u[6] u[7] u[8] u[9] u[10] u[11]
 u[12] u[13] u[14] u[15] u[16] u[17] u[18] u[19] u[20] u[21] u[22] u[23]
 u[24] u[25] u[26] u[27] u[28] u[29] u[30] u[31] u[32] u[33] u[34] u[35]
 u[36] u[37] u[38] u[39] u[40] u[41] u[42] u[43] u[44] u[45] u[46] u[47]
 u[48] u[49] u[50] u[51] u[52] u[53] u[54] u[55] u[56] u[57] u[58] u[59]
 u[60] u[61] u[62] u[63] u[64] u[65] u[66] u[67] u[68] u[69] u[70] u[71]
 u[72] u[73] u[74] u[75] u[76] u[77] u[78] u[79] u[80] u[81] u[82] u[83]
 u[84] u[85] u[86] u[87] u[88] u[89] u[90] u[91] u[92] u[93] u[94] u[95]
 u[96] u[97] u[98] u[99] r[0] r[1] r[2] r[3] r[4] r[5] r[6] r[7] r[8] r[9]
 r[10] r[11] r[12] r[13] r[14] r[15] r[16] r[17] r[18] r[19] r[20] r[21]
 r[22] r[23] r[24] r[25] r[26] r[27] r[28] r[29] r[30] r[31] r[32] r[33]
 r[34] r[35] r[36] r[37] r[38] r[39] r[40] r[41] r[42] r[43] r[44] r[45]
 r[46] r[47] r[48] r[49] r[50] r[51] r[52] r[53] r[54] r[55] r[56] r[57]
 r[58] r[59] r[60] r[61] r[62] r[63] r[64] r[65] r[66] r[67] r[68] r[69]
 r[70] r[71] r[72] r[73] r[74] r[75] r[76] r[77] r[78] r[79] r[80] r[81]
 r[82] r[83] r[84] r[85] r[86] r[87] r[88] r[89] r[90] r[91] r[92] r[93]
 r[94] r[95] r[96] r[97] r[98] r[99]
End
